certificates/rado_a13_c269_N37.cnf
c Rad2 upper bound instance: x1 + 13*x2 - x3 = 269, interval [1,37]
p cnf 37 210
1 5 21 0
-1 -5 -21 0
1 18 22 0
-1 -18 -22 0
1 23 31 0
-1 -23 -31 0
2 6 21 0
-2 -6 -21 0
2 19 22 0
-2 -19 -22 0
2 23 32 0
-2 -23 -32 0
3 7 21 0
-3 -7 -21 0
3 20 22 0
-3 -20 -22 0
3 23 33 0
-3 -23 -33 0
4 8 21 0
-4 -8 -21 0
4 21 22 0
-4 -21 -22 0
4 23 34 0
-4 -23 -34 0
5 9 21 0
-5 -9 -21 0
5 22 0
-5 -22 0
5 23 35 0
-5 -23 -35 0
6 10 21 0
-6 -10 -21 0
6 22 23 0
-6 -22 -23 0
6 23 36 0
-6 -23 -36 0
7 11 21 0
-7 -11 -21 0
7 22 24 0
-7 -22 -24 0
7 23 37 0
-7 -23 -37 0
8 12 21 0
-8 -12 -21 0
8 22 25 0
-8 -22 -25 0
9 13 21 0
-9 -13 -21 0
9 22 26 0
-9 -22 -26 0
1 10 20 0
-1 -10 -20 0
10 14 21 0
-10 -14 -21 0
10 22 27 0
-10 -22 -27 0
2 11 20 0
-2 -11 -20 0
11 15 21 0
-11 -15 -21 0
11 22 28 0
-11 -22 -28 0
3 12 20 0
-3 -12 -20 0
12 16 21 0
-12 -16 -21 0
12 22 29 0
-12 -22 -29 0
4 13 20 0
-4 -13 -20 0
13 17 21 0
-13 -17 -21 0
13 22 30 0
-13 -22 -30 0
5 14 20 0
-5 -14 -20 0
14 18 21 0
-14 -18 -21 0
14 22 31 0
-14 -22 -31 0
6 15 20 0
-6 -15 -20 0
15 19 21 0
-15 -19 -21 0
15 22 32 0
-15 -22 -32 0
7 16 20 0
-7 -16 -20 0
16 20 21 0
-16 -20 -21 0
16 22 33 0
-16 -22 -33 0
8 17 20 0
-8 -17 -20 0
17 21 0
-17 -21 0
17 22 34 0
-17 -22 -34 0
9 18 20 0
-9 -18 -20 0
18 21 22 0
-18 -21 -22 0
18 22 35 0
-18 -22 -35 0
10 19 20 0
-10 -19 -20 0
19 21 23 0
-19 -21 -23 0
19 22 36 0
-19 -22 -36 0
11 20 0
-11 -20 0
20 21 24 0
-20 -21 -24 0
20 22 37 0
-20 -22 -37 0
12 20 21 0
-12 -20 -21 0
21 25 0
-21 -25 0
13 20 22 0
-13 -20 -22 0
21 22 26 0
-21 -22 -26 0
1 19 23 0
-1 -19 -23 0
14 20 23 0
-14 -20 -23 0
21 23 27 0
-21 -23 -27 0
2 19 24 0
-2 -19 -24 0
15 20 24 0
-15 -20 -24 0
21 24 28 0
-21 -24 -28 0
3 19 25 0
-3 -19 -25 0
16 20 25 0
-16 -20 -25 0
21 25 29 0
-21 -25 -29 0
4 19 26 0
-4 -19 -26 0
17 20 26 0
-17 -20 -26 0
21 26 30 0
-21 -26 -30 0
5 19 27 0
-5 -19 -27 0
18 20 27 0
-18 -20 -27 0
21 27 31 0
-21 -27 -31 0
6 19 28 0
-6 -19 -28 0
19 20 28 0
-19 -20 -28 0
21 28 32 0
-21 -28 -32 0
7 19 29 0
-7 -19 -29 0
20 29 0
-20 -29 0
21 29 33 0
-21 -29 -33 0
8 19 30 0
-8 -19 -30 0
20 21 30 0
-20 -21 -30 0
21 30 34 0
-21 -30 -34 0
9 19 31 0
-9 -19 -31 0
20 22 31 0
-20 -22 -31 0
21 31 35 0
-21 -31 -35 0
10 19 32 0
-10 -19 -32 0
20 23 32 0
-20 -23 -32 0
21 32 36 0
-21 -32 -36 0
11 19 33 0
-11 -19 -33 0
20 24 33 0
-20 -24 -33 0
21 33 37 0
-21 -33 -37 0
12 19 34 0
-12 -19 -34 0
20 25 34 0
-20 -25 -34 0
13 19 35 0
-13 -19 -35 0
20 26 35 0
-20 -26 -35 0
1 18 36 0
-1 -18 -36 0
14 19 36 0
-14 -19 -36 0
20 27 36 0
-20 -27 -36 0
2 18 37 0
-2 -18 -37 0
15 19 37 0
-15 -19 -37 0
20 28 37 0
-20 -28 -37 0
