certificates/rado_a13_c269_N37.drat
21 -34 -35 0
-26 -21 -35 0
-21 -35 -37 0
-22 21 -37 0
-35 -37 0
d -21 -35 -37 0
22 -26 -36 -37 0
-26 -36 -37 0
d 22 -26 -36 -37 0
-20 -37 0
22 -37 0
-37 0
-18 -22 0
-22 0
5 0
20 0
-14 0
-11 0
-29 0
31 0
28 0
12 0
-19 0
-3 0
-21 0
2 0
36 0
15 0
33 0
7 0
25 0
17 0
4 0
18 0
26 0
23 0
10 0
-27 0
-6 0
-24 0
-16 0
-34 0
0
